223077
170 73 153 183 111 52 145 112 74 117 72 118 100 114 124 197 53 155 146 71 82 24 107 137 56 101 62 28 173 123 65 14 21 196 108 51 90 125 13 79 78 191 80 129 17 149 94 97 158 83 61 161 57 122 29 195 180 141 159 163 12 39 179 34 69 171 150 84 89 174 44 75 188 48 86 110 136 133 119 167 187 5 106 181 0 40 144 81 168 135 128 189 50 11 172 126 15 96 176 22 162 85 20 177 109 60 151 157 66 148 2 31 64 9 104 193 138 152 25 131 166 59 132 142 77 4 49 184 37 121 192 58 35 36 199 87 54 194 7 93 130 120 16 45 113 70 32 6 105 99 18 91 10 92 115 127 95 102 169 134 19 103 43 190 182 178 63 1 8 67 30 198 139 88 147 68 164 116 41 55 3 154 143 23 185 47 165 42 186 140 33 160 27 26 76 156 46 38 98 175 
